Minimize
 + 541.0 y_1,6 + 386.0 y_1,7 + 25.0 y_1,8 + 1512.0 y_1,9 + 234.0 y_2,6
 + 899.0 y_2,7 + 103.0 y_2,8 + 1256.0 y_2,9 + 543.0 y_3,6 + 257.0 y_3,7
 + 1653.0 y_3,8 + 1085.0 y_3,9 + 1785.0 y_4,6 + 227.0 y_4,7 + 1670.0 y_4,8
 + 823.0 y_4,9 + 490.0 y_5,6 + 1233.0 y_5,7 + 1242.0 y_5,8 + 1841.0 y_5,9
Subject To
balance_1:  + x_1,6 + x_1,7 + x_1,8 + x_1,9 = 208.0
balance_2:  + x_2,6 + x_2,7 + x_2,8 + x_2,9 = 193.0
balance_3:  + x_3,6 + x_3,7 + x_3,8 + x_3,9 = 195.0
balance_4:  + x_4,6 + x_4,7 + x_4,8 + x_4,9 = 209.0
balance_5:  + x_5,6 + x_5,7 + x_5,8 + x_5,9 = 4031.0
balance_6:  - x_1,6 - x_2,6 - x_3,6 - x_4,6 - x_5,6 = -1530.0
balance_7:  - x_1,7 - x_2,7 - x_3,7 - x_4,7 - x_5,7 = -1583.0
balance_8:  - x_1,8 - x_2,8 - x_3,8 - x_4,8 - x_5,8 = -1562.0
balance_9:  - x_1,9 - x_2,9 - x_3,9 - x_4,9 - x_5,9 = -161.0
balance_10:  + x_1,6  - y_1,6 <= 7407.0
balance_11:  + x_1,7 - y_1,7 <= 3546.0
balance_12:  + x_1,8 - y_1,8 <= 5072.0
balance_13:  + x_1,9 - y_1,9 <= 1932.0
balance_14:  + x_2,6 - y_2,6 <= 81.0
balance_15:  + x_2,7 - y_2,7 <= 90.0
balance_16:  + x_2,8 - y_2,8 <= 29.0
balance_17:  + x_2,9 - y_2,9 <= 902.0
balance_18:  + x_3,6 - y_3,6 <= 13.0
balance_19:  + x_3,7 - y_3,7 <= 8413.0
balance_20:  + x_3,8 - y_3,8 <= 8719.0
balance_21:  + x_3,9 - y_3,9 <= 7439.0
balance_22:  + x_4,6 - y_4,6 <= 5047.0
balance_23:  + x_4,7 - y_4,7 <= 83.0
balance_24:  + x_4,8 - y_4,8 <= 58.0
balance_25:  + x_4,9 - y_4,9 <= 76.0
balance_26:  + x_5,6 - y_5,6 <= 83.0
balance_27:  + x_5,7 - y_5,7 <= 7904.0
balance_28:  + x_5,8 - y_5,8 <= 73.0
balance_29:  + x_5,9 - y_5,9 <= 65.0

END
